NAME : TSP_INST.7801663.tour
COMMENT : Length = 7801663
COMMENT : Found by LKH [Keld Helsgaun] Sat Oct 18 11:07:55 2025
TYPE : TOUR
DIMENSION : 100
TOUR_SECTION
1
7
70
24
74
78
20
37
38
71
75
17
59
89
64
11
45
99
80
15
92
12
16
91
52
55
49
94
93
54
81
69
90
43
14
3
32
65
46
73
23
19
66
44
96
58
88
5
56
85
61
84
40
13
10
8
35
18
48
4
63
77
41
53
87
62
9
51
72
79
86
21
33
25
30
22
95
26
42
27
6
82
76
29
97
100
68
50
36
67
83
31
47
98
2
34
60
28
39
57
-1
EOF
